Route #1: 26 7 8 35 53 14 59 19 54 13 27 52
Route #2: 11 66 65 38 10 58 72 12 17
Route #3: 40 9 39 31 25 55 18 50 32 44 3
Route #4: 24 49 23 56 41 43 42 64 22 61 21 74
Route #5: 68 30 2 28 62 1 73 33 63 16 51 6
Route #6: 48 47 36 69 71 60 70 20 37 57 15 5 29 45
Route #7: 67 46 34 4 75
Cost 720